************************************************************************
file with basedata            : cm445_.bas
initial value random generator: 109514446
************************************************************************
projects                      :  1
jobs (incl. supersource/sink ):  18
horizon                       :  139
RESOURCES
  - renewable                 :  2   R
  - nonrenewable              :  2   N
  - doubly constrained        :  0   D
************************************************************************
PROJECT INFORMATION:
pronr.  #jobs rel.date duedate tardcost  MPM-Time
    1     16      0       15        4       15
************************************************************************
PRECEDENCE RELATIONS:
jobnr.    #modes  #successors   successors
   1        1          3           2   3   4
   2        4          3           5   9  10
   3        4          3           7  10  17
   4        4          3           5   6   9
   5        4          3           8  13  16
   6        4          3           7  12  17
   7        4          2          11  16
   8        4          2          11  14
   9        4          1          15
  10        4          3          11  12  16
  11        4          1          15
  12        4          1          13
  13        4          1          15
  14        4          1          17
  15        4          1          18
  16        4          1          18
  17        4          1          18
  18        1          0        
************************************************************************
REQUESTS/DURATIONS:
jobnr. mode duration  R 1  R 2  N 1  N 2
------------------------------------------------------------------------
  1      1     0       0    0    0    0
  2      1     4       7    7    9    3
         2     6       7    4    8    2
         3     6       6    7    7    2
         4     7       6    1    6    2
  3      1     3       8    8   10    7
         2     4       7    7    7    6
         3     6       4    6    5    4
         4     6       4    4    7    5
  4      1     3       7   10    3    9
         2     6       5    8    3    7
         3     6       5    7    3    9
         4     7       5    7    3    6
  5      1     2       5    8    5    3
         2     3       4    7    4    2
         3     3       5    6    4    3
         4     8       3    5    3    2
  6      1     2      10    3    7    7
         2     5       8    3    5    4
         3     5       7    3    7    5
         4     9       6    3    4    2
  7      1     3       6    8    8    4
         2     5       5    6    6    4
         3     9       4    4    4    3
         4    10       3    1    3    2
  8      1     2       4    5    9    6
         2     3       4    4    8    5
         3     4       2    4    8    4
         4     7       2    4    8    1
  9      1     3      10    3    9    8
         2     5       8    3    9    8
         3     8       5    3    9    8
         4    10       5    3    8    6
 10      1     1       6    8   10    3
         2     4       6    7    9    3
         3    10       6    5    9    2
         4    10       6    6    8    2
 11      1     2       6    8    8   10
         2     4       4    4    4    9
         3     4       6    3    6    8
         4     9       4    3    2    7
 12      1     3       5    8   10    7
         2     6       4    8   10    7
         3     8       3    8    9    6
         4    10       3    7    9    5
 13      1     3       5    6   10    2
         2     4       3    6    9    2
         3     9       2    3    7    2
         4    10       2    2    5    1
 14      1     1       7    1    5    5
         2     2       4    1    3    4
         3     8       3    1    2    4
         4     8       4    1    3    3
 15      1     3       3    7    5    9
         2     4       3    7    5    8
         3     9       3    5    5    6
         4    10       3    5    4    6
 16      1     1       3    5   10    6
         2     3       3    4    7    6
         3     6       3    4    5    5
         4     8       2    4    4    5
 17      1     6       3    8    8    9
         2     7       3    7    8    7
         3     7       3    5    8    9
         4    10       3    5    8    6
 18      1     0       0    0    0    0
************************************************************************
RESOURCEAVAILABILITIES:
  R 1  R 2  N 1  N 2
   12   12  104   79
************************************************************************
